(declare-const BAV1 Bool)
(declare-const BAV2 Bool)
(declare-const GEN3 Int)
(declare-const GEN2 Int)
(declare-const GEN1 Int)
(set-option :auto-config true)
(declare-const a Int)
(declare-const b Int)
(assert (>= (- a (ite (<= a GEN1) (* GEN2 b) b)) GEN3))
(assert (= BAV1 (>= (- a (ite (<= a GEN1) (* GEN2 b) b)) GEN3)))
(assert (= BAV2 (<= a GEN1)))
(check-sat)
(get-model)
(eval (>= (- a (ite (<= a 0) (* 3 b) b)) 2))